(set-logic LIA)
(set-info :license "https://creativecommons.org/licenses/by/4.0/")
(set-info :status "sat")
(set-info :smt-lib-version "2.6")
(declare-fun c_old(~a3~0) () Int)
(declare-fun c_~a3~0 () Int)
(assert
  (and
    (or
      (exists ((v_prenex_3 Int) (v_~a3~0_2176 Int) (quotient_1 Int) (reminder_2 Int) (reminder_0 Int))
        (and
          (= (* 1 reminder_0) 0)
          (<= (* (- 1) v_~a3~0_2176) (- 116))
          (<= (+ (* 1 c_~a3~0) (* (- 1) quotient_1)) 219839)
          (<= (+ (* 1 v_prenex_3) (* (- 1) reminder_2)) 336)
          (<= (+ (* (- 1) v_prenex_3) (* 5 reminder_0)) 0)
          (<= (+ (* 1 v_prenex_3) (* (- 5) reminder_0)) 4)
          (<= (+ (* (- 1) v_prenex_3) (* 5 quotient_1)) (- 210150))
          (<= (+ (* 1 v_prenex_3) (* (- 5) quotient_1)) 210154)
          (<= (+ (* (- 1) v_~a3~0_2176) (* 55 reminder_2)) 0)
          (<= (+ (* 1 v_~a3~0_2176) (* (- 55) reminder_2)) 54)
        )
      )
      (exists ((v_~a3~0_2176 Int) (v_~a3~0_2177 Int) (quotient_4 Int) (reminder_3 Int))
        (and
          (<= (* (- 1) v_~a3~0_2176) (- 116))
          (<= (* (- 1) v_~a3~0_2177) (- 210150))
          (<= (+ (* 1 v_~a3~0_2177) (* (- 1) reminder_3)) 336)
          (<= (+ (* 1 c_~a3~0) (* (- 1) quotient_4)) 219839)
          (<= (+ (* (- 1) v_~a3~0_2176) (* 55 reminder_3)) 0)
          (<= (+ (* 1 v_~a3~0_2176) (* (- 55) reminder_3)) 54)
          (<= (+ (* (- 1) v_~a3~0_2177) (* 5 quotient_4)) (- 210150))
          (<= (+ (* 1 v_~a3~0_2177) (* (- 5) quotient_4)) 210154)
        )
      )
      (exists ((v_prenex_4 Int) (v_~a3~0_2176 Int) (quotient_5 Int) (reminder_6 Int) (reminder_7 Int))
        (and
          (<= (* (- 1) v_~a3~0_2176) (- 116))
          (<= (* 1 v_prenex_4) 210149)
          (<= (+ (* 1 c_~a3~0) (* (- 1) quotient_5)) 219840)
          (<= (+ (* 1 v_prenex_4) (* (- 1) reminder_6)) 336)
          (not
            (= (* 1 reminder_7) 0)
          )
          (<= (+ (* (- 1) v_prenex_4) (* 5 quotient_5)) (- 210150))
          (<= (+ (* 1 v_prenex_4) (* (- 5) quotient_5)) 210154)
          (<= (+ (* (- 1) v_prenex_4) (* 5 reminder_7)) 0)
          (<= (+ (* 1 v_prenex_4) (* (- 5) reminder_7)) 4)
          (<= (+ (* (- 1) v_~a3~0_2176) (* 55 reminder_6)) 0)
          (<= (+ (* 1 v_~a3~0_2176) (* (- 55) reminder_6)) 54)
        )
      )
    )
    (not
      (or
        (exists ((v_~a3~0_2177 Int) (quotient_8 Int))
          (and
            (<= (* (- 1) v_~a3~0_2177) (- 210150))
            (<= (+ (* 1 c_~a3~0) (* (- 1) quotient_8)) 219839)
            (<= (+ (* (- 1) c_old(~a3~0)) (* 1 v_~a3~0_2177)) 0)
            (<= (+ (* (- 1) v_~a3~0_2177) (* 5 quotient_8)) (- 210150))
            (<= (+ (* 1 v_~a3~0_2177) (* (- 5) quotient_8)) 210154)
          )
        )
        (exists ((v_~a3~0_2177 Int) (reminder_9 Int) (quotient_10 Int))
          (and
            (<= (* 1 v_~a3~0_2177) 210149)
            (<= (+ (* (- 1) c_old(~a3~0)) (* 1 v_~a3~0_2177)) 0)
            (not
              (= (* 1 reminder_9) 0)
            )
            (<= (+ (* 1 c_~a3~0) (* (- 1) quotient_10)) 219840)
            (<= (+ (* (- 1) v_~a3~0_2177) (* 5 reminder_9)) 0)
            (<= (+ (* 1 v_~a3~0_2177) (* (- 5) reminder_9)) 4)
            (<= (+ (* (- 1) v_~a3~0_2177) (* 5 quotient_10)) (- 210150))
            (<= (+ (* 1 v_~a3~0_2177) (* (- 5) quotient_10)) 210154)
          )
        )
        (exists ((v_~a3~0_2177 Int) (reminder_11 Int) (quotient_12 Int))
          (and
            (= (* 1 reminder_11) 0)
            (<= (+ (* 1 c_~a3~0) (* (- 1) quotient_12)) 219839)
            (<= (+ (* (- 1) c_old(~a3~0)) (* 1 v_~a3~0_2177)) 0)
            (<= (+ (* (- 1) v_~a3~0_2177) (* 5 reminder_11)) 0)
            (<= (+ (* 1 v_~a3~0_2177) (* (- 5) reminder_11)) 4)
            (<= (+ (* (- 1) v_~a3~0_2177) (* 5 quotient_12)) (- 210150))
            (<= (+ (* 1 v_~a3~0_2177) (* (- 5) quotient_12)) 210154)
          )
        )
      )
    )
  )
)
(check-sat)

